13
0 50 63 79 83 96 37 63 58 87 60 63 85
29 0 97 29 28 16 75 21 36 50 32 39 36
66 44 0 44 35 82 56 50 49 15 71 64 76
95 19 63 0 80 64 100 90 53 65 38 87 59
82 84 44 51 0 67 71 20 87 64 88 49 53
81 36 31 51 88 0 18 44 62 68 28 75 20
69 38 28 46 86 80 0 92 74 96 82 43 93
100 21 20 76 35 97 60 0 29 95 84 51 71
78 71 85 45 25 75 44 43 0 25 98 51 21
17 61 98 84 79 36 99 54 53 0 15 78 33
34 69 90 35 44 96 45 58 72 89 0 87 74
35 91 69 39 17 29 17 82 85 49 91 0 48
81 81 28 96 94 39 79 74 93 83 80 35 0
